N = 11;
H = 6;
T = 2;

avail = array3d(1..N, 1..H, 1..T, [6, 8, 2, 6, 10, 1, 0, 6, 2, 6, 4, 9, 7, 2, 2, 4, 7, 6, 0, 9, 7, 7, 9, 0, 4, 6, 10, 5, 10, 9, 0, 10, 9, 9, 10, 9, 5, 3, 1, 9, 3, 10, 7, 6, 4, 2, 4, 10, 7, 0, 6, 1, 7, 4, 1, 7, 2, 9, 3, 5, 1, 4, 4, 8, 5, 2, 4, 9, 3, 4, 2, 1, 0, 3, 2, 10, 7, 9, 0, 9, 2, 1, 7, 7, 3, 9, 7, 6, 1, 6, 3, 10, 7, 1, 9, 5, 9, 10, 5, 2, 7, 5, 2, 8, 0, 4, 5, 2, 10, 3, 2, 0, 10, 5, 6, 3, 10, 1, 6, 7, 4, 10, 2, 9, 9, 9, 4, 9, 9, 10, 4, 1]);

r = array2d(1..H, 1..T, [4, 3, 4, 3, 2, 4, 4, 6, 1, 4, 4, 0]);
